544
0 19 52 106 138 177 219 244 280 320 353 389 446 480 527 
0 23 47 66 78 103 141 170 209 228 250 273 296 353 372 
0 25 42 66 106 138 168 226 247 273 320 363 418 456 476 
0 25 84 122 139 169 181 194 245 257 275 306 345 398 424 
0 32 47 82 106 138 166 188 209 258 296 336 385 396 433 
0 32 80 91 125 141 207 221 336 363 389 418 446 467 487 
0 42 80 95 177 199 226 280 336 348 368 389 411 456 517 
0 11 45 91 106 125 138 170 196 244 277 312 348 369 494 
